c Generated map
c Size: 8 * 8, weights in range: 1 to 10, walls: False, with ratio 0.0
c dim 3 of 10
c
p sp 64 112
c graph contains 64 nodes and 112 arcs
c
a 1 9 3
a 9 1 3
a 1 2 5
a 2 1 5
a 2 10 7
a 10 2 7
a 2 3 9
a 3 2 9
a 3 11 7
a 11 3 7
a 3 4 9
a 4 3 9
a 4 12 8
a 12 4 8
a 4 5 8
a 5 4 8
a 5 13 3
a 13 5 3
a 5 6 1
a 6 5 1
a 6 14 1
a 14 6 1
a 6 7 1
a 7 6 1
a 7 15 9
a 15 7 9
a 7 8 6
a 8 7 6
a 8 16 4
a 16 8 4
a 9 17 8
a 17 9 8
a 9 10 5
a 10 9 5
a 10 18 4
a 18 10 4
a 10 11 9
a 11 10 9
a 11 19 4
a 19 11 4
a 11 12 4
a 12 11 4
a 12 20 5
a 20 12 5
a 12 13 6
a 13 12 6
a 13 21 10
a 21 13 10
a 13 14 2
a 14 13 2
a 14 22 8
a 22 14 8
a 14 15 5
a 15 14 5
a 15 23 7
a 23 15 7
a 15 16 10
a 16 15 10
a 16 24 2
a 24 16 2
a 17 25 1
a 25 17 1
a 17 18 2
a 18 17 2
a 18 26 9
a 26 18 9
a 18 19 5
a 19 18 5
a 19 27 8
a 27 19 8
a 19 20 9
a 20 19 9
a 20 28 2
a 28 20 2
a 20 21 5
a 21 20 5
a 21 29 10
a 29 21 10
a 21 22 6
a 22 21 6
a 22 30 8
a 30 22 8
a 22 23 10
a 23 22 10
a 23 31 9
a 31 23 9
a 23 24 7
a 24 23 7
a 24 32 3
a 32 24 3
a 25 33 1
a 33 25 1
a 25 26 3
a 26 25 3
a 26 34 7
a 34 26 7
a 26 27 5
a 27 26 5
a 27 35 8
a 35 27 8
a 27 28 8
a 28 27 8
a 28 36 6
a 36 28 6
a 28 29 3
a 29 28 3
a 29 37 7
a 37 29 7
a 29 30 2
a 30 29 2
a 30 38 7
a 38 30 7
a 30 31 10
a 31 30 10
a 31 39 9
a 39 31 9
a 31 32 4
a 32 31 4
a 32 40 2
a 40 32 2
a 33 41 6
a 41 33 6
a 33 34 2
a 34 33 2
a 34 42 10
a 42 34 10
a 34 35 5
a 35 34 5
a 35 43 5
a 43 35 5
a 35 36 9
a 36 35 9
a 36 44 6
a 44 36 6
a 36 37 9
a 37 36 9
a 37 45 9
a 45 37 9
a 37 38 5
a 38 37 5
a 38 46 1
a 46 38 1
a 38 39 5
a 39 38 5
a 39 47 7
a 47 39 7
a 39 40 10
a 40 39 10
a 40 48 3
a 48 40 3
a 41 49 6
a 49 41 6
a 41 42 6
a 42 41 6
a 42 50 9
a 50 42 9
a 42 43 5
a 43 42 5
a 43 51 3
a 51 43 3
a 43 44 3
a 44 43 3
a 44 52 7
a 52 44 7
a 44 45 5
a 45 44 5
a 45 53 7
a 53 45 7
a 45 46 10
a 46 45 10
a 46 54 5
a 54 46 5
a 46 47 3
a 47 46 3
a 47 55 8
a 55 47 8
a 47 48 1
a 48 47 1
a 48 56 7
a 56 48 7
a 49 57 9
a 57 49 9
a 49 50 9
a 50 49 9
a 50 58 8
a 58 50 8
a 50 51 9
a 51 50 9
a 51 59 9
a 59 51 9
a 51 52 8
a 52 51 8
a 52 60 5
a 60 52 5
a 52 53 9
a 53 52 9
a 53 61 1
a 61 53 1
a 53 54 2
a 54 53 2
a 54 62 10
a 62 54 10
a 54 55 1
a 55 54 1
a 55 63 1
a 63 55 1
a 55 56 8
a 56 55 8
a 56 64 1
a 64 56 1
a 57 58 2
a 58 57 2
a 58 59 7
a 59 58 7
a 59 60 7
a 60 59 7
a 60 61 9
a 61 60 9
a 61 62 3
a 62 61 3
a 62 63 2
a 63 62 2
a 63 64 10
a 64 63 10
